# Node Net
771   1
4891   1
4867   1
4201   1
141   2
4854   2
4846   2
1821   2
 14   3
3640   3
  3   3
 38   4
3010   4
 22   4
1470   5
491   5
2030   5
4830   6
421   6
3921   6
2730   7
4841   7
4864   8
4866   8
560   9
630   9
3501  10
 45  10
